p cnf 1441 2754
1441 0
-1441 1427 1440 0
-1427 1413 1426 0
-1413 1399 1412 0
-1399 1385 1398 0
-1385 1371 1384 0
-1371 1357 1370 0
-1357 1343 1356 0
-1343 1329 1342 0
-1329 1315 1328 0
-1315 1301 1314 0
-1301 1287 1300 0
-1287 1273 1286 0
-1273 1259 1272 0
-1259 1245 1258 0
-1245 1231 1244 0
-1231 1217 1230 0
-1217 1203 1216 0
-1203 1189 1202 0
-1189 1175 1188 0
-1175 1161 1174 0
-1161 1147 1160 0
-1147 1133 1146 0
-1133 1119 1132 0
-1119 1105 1118 0
-1105 1091 1104 0
-1091 1077 1090 0
-1077 1063 1076 0
-1063 1049 1062 0
-1049 1035 1048 0
-1035 1021 1034 0
-1021 1007 1020 0
-1007 993 1006 0
-993 979 992 0
-979 965 978 0
-965 951 964 0
-951 937 950 0
-937 923 936 0
-923 909 922 0
-909 895 908 0
-895 881 894 0
-881 867 880 0
-867 853 866 0
-853 839 852 0
-839 825 838 0
-825 811 824 0
-811 797 810 0
-797 783 796 0
-783 769 782 0
-769 755 768 0
-755 741 754 0
-741 727 740 0
-727 713 726 0
-713 699 712 0
-699 685 698 0
-685 671 684 0
-671 657 670 0
-657 643 656 0
-643 629 642 0
-629 615 628 0
-615 601 614 0
-601 587 600 0
-587 573 586 0
-573 559 572 0
-559 545 558 0
-545 531 544 0
-531 517 530 0
-517 503 516 0
-503 489 502 0
-489 475 488 0
-475 461 474 0
-461 447 460 0
-447 433 446 0
-433 419 432 0
-419 405 418 0
-405 391 404 0
-391 377 390 0
-377 363 376 0
-363 349 362 0
-349 335 348 0
-335 321 334 0
-321 307 320 0
-307 293 306 0
-293 279 292 0
-279 265 278 0
-265 251 264 0
-251 237 250 0
-237 223 236 0
-223 209 222 0
-209 195 208 0
-195 181 194 0
-181 167 180 0
-167 153 166 0
-153 139 152 0
-139 125 138 0
-125 111 124 0
-111 97 110 0
-97 83 96 0
-83 69 82 0
-69 55 68 0
-55 41 54 0
-41 27 40 0
-27 25 0
-27 26 0
-25 23 0
-25 -24 0
-23 21 0
-23 22 0
-21 19 0
-21 -20 0
-19 17 0
-19 18 0
-17 15 0
-17 -16 0
-15 13 0
-15 -14 0
-13 11 0
-13 -12 0
-11 9 0
-11 -10 0
-9 7 0
-9 8 0
-7 5 0
-7 -6 0
-5 3 0
-5 4 0
-3 1 0
-3 -2 0
-40 39 0
-40 26 0
-39 38 0
-39 -24 0
-38 37 0
-38 22 0
-37 36 0
-37 -20 0
-36 35 0
-36 18 0
-35 34 0
-35 -16 0
-34 33 0
-34 -14 0
-33 32 0
-33 12 0
-32 31 0
-32 -10 0
-31 30 0
-31 -8 0
-30 29 0
-30 -6 0
-29 28 0
-29 4 0
-28 1 0
-28 -2 0
-54 53 0
-54 26 0
-53 52 0
-53 -24 0
-52 51 0
-52 22 0
-51 50 0
-51 -20 0
-50 49 0
-50 18 0
-49 48 0
-49 -16 0
-48 47 0
-48 -14 0
-47 46 0
-47 12 0
-46 45 0
-46 -10 0
-45 44 0
-45 8 0
-44 43 0
-44 -6 0
-43 42 0
-43 -4 0
-42 1 0
-42 -2 0
-68 67 0
-68 26 0
-67 66 0
-67 -24 0
-66 65 0
-66 22 0
-65 64 0
-65 -20 0
-64 63 0
-64 18 0
-63 62 0
-63 -16 0
-62 61 0
-62 -14 0
-61 60 0
-61 12 0
-60 59 0
-60 -10 0
-59 58 0
-59 8 0
-58 57 0
-58 -6 0
-57 56 0
-57 4 0
-56 -1 0
-56 -2 0
-82 81 0
-82 26 0
-81 80 0
-81 -24 0
-80 79 0
-80 22 0
-79 78 0
-79 -20 0
-78 77 0
-78 -18 0
-77 76 0
-77 -16 0
-76 75 0
-76 -14 0
-75 74 0
-75 12 0
-74 73 0
-74 10 0
-73 72 0
-73 -8 0
-72 71 0
-72 -6 0
-71 70 0
-71 4 0
-70 1 0
-70 -2 0
-96 95 0
-96 26 0
-95 94 0
-95 -24 0
-94 93 0
-94 22 0
-93 92 0
-93 -20 0
-92 91 0
-92 -18 0
-91 90 0
-91 16 0
-90 89 0
-90 -14 0
-89 88 0
-89 -12 0
-88 87 0
-88 10 0
-87 86 0
-87 -8 0
-86 85 0
-86 -6 0
-85 84 0
-85 4 0
-84 1 0
-84 -2 0
-110 109 0
-110 26 0
-109 108 0
-109 -24 0
-108 107 0
-108 22 0
-107 106 0
-107 -20 0
-106 105 0
-106 -18 0
-105 104 0
-105 16 0
-104 103 0
-104 -14 0
-103 102 0
-103 12 0
-102 101 0
-102 10 0
-101 100 0
-101 -8 0
-100 99 0
-100 -6 0
-99 98 0
-99 -4 0
-98 1 0
-98 -2 0
-124 123 0
-124 26 0
-123 122 0
-123 -24 0
-122 121 0
-122 22 0
-121 120 0
-121 -20 0
-120 119 0
-120 -18 0
-119 118 0
-119 16 0
-118 117 0
-118 -14 0
-117 116 0
-117 12 0
-116 115 0
-116 10 0
-115 114 0
-115 -8 0
-114 113 0
-114 -6 0
-113 112 0
-113 4 0
-112 -1 0
-112 -2 0
-138 137 0
-138 26 0
-137 136 0
-137 -24 0
-136 135 0
-136 22 0
-135 134 0
-135 -20 0
-134 133 0
-134 -18 0
-133 132 0
-133 16 0
-132 131 0
-132 -14 0
-131 130 0
-131 12 0
-130 129 0
-130 -10 0
-129 128 0
-129 -8 0
-128 127 0
-128 -6 0
-127 126 0
-127 4 0
-126 -1 0
-126 2 0
-152 151 0
-152 26 0
-151 150 0
-151 -24 0
-150 149 0
-150 22 0
-149 148 0
-149 -20 0
-148 147 0
-148 -18 0
-147 146 0
-147 16 0
-146 145 0
-146 -14 0
-145 144 0
-145 12 0
-144 143 0
-144 -10 0
-143 142 0
-143 8 0
-142 141 0
-142 -6 0
-141 140 0
-141 -4 0
-140 -1 0
-140 2 0
-166 165 0
-166 26 0
-165 164 0
-165 -24 0
-164 163 0
-164 22 0
-163 162 0
-163 -20 0
-162 161 0
-162 -18 0
-161 160 0
-161 16 0
-160 159 0
-160 -14 0
-159 158 0
-159 12 0
-158 157 0
-158 -10 0
-157 156 0
-157 -8 0
-156 155 0
-156 6 0
-155 154 0
-155 -4 0
-154 1 0
-154 -2 0
-180 179 0
-180 26 0
-179 178 0
-179 -24 0
-178 177 0
-178 22 0
-177 176 0
-177 -20 0
-176 175 0
-176 -18 0
-175 174 0
-175 16 0
-174 173 0
-174 -14 0
-173 172 0
-173 12 0
-172 171 0
-172 -10 0
-171 170 0
-171 8 0
-170 169 0
-170 6 0
-169 168 0
-169 -4 0
-168 -1 0
-168 -2 0
-194 193 0
-194 26 0
-193 192 0
-193 -24 0
-192 191 0
-192 22 0
-191 190 0
-191 -20 0
-190 189 0
-190 -18 0
-189 188 0
-189 16 0
-188 187 0
-188 -14 0
-187 186 0
-187 12 0
-186 185 0
-186 -10 0
-185 184 0
-185 8 0
-184 183 0
-184 -6 0
-183 182 0
-183 -4 0
-182 -1 0
-182 2 0
-208 207 0
-208 26 0
-207 206 0
-207 -24 0
-206 205 0
-206 -22 0
-205 204 0
-205 -20 0
-204 203 0
-204 -18 0
-203 202 0
-203 16 0
-202 201 0
-202 14 0
-201 200 0
-201 -12 0
-200 199 0
-200 10 0
-199 198 0
-199 -8 0
-198 197 0
-198 -6 0
-197 196 0
-197 4 0
-196 1 0
-196 -2 0
-222 221 0
-222 26 0
-221 220 0
-221 -24 0
-220 219 0
-220 -22 0
-219 218 0
-219 20 0
-218 217 0
-218 -18 0
-217 216 0
-217 -16 0
-216 215 0
-216 14 0
-215 214 0
-215 -12 0
-214 213 0
-214 10 0
-213 212 0
-213 -8 0
-212 211 0
-212 -6 0
-211 210 0
-211 4 0
-210 1 0
-210 -2 0
-236 235 0
-236 -26 0
-235 234 0
-235 -24 0
-234 233 0
-234 -22 0
-233 232 0
-233 20 0
-232 231 0
-232 18 0
-231 230 0
-231 -16 0
-230 229 0
-230 14 0
-229 228 0
-229 -12 0
-228 227 0
-228 10 0
-227 226 0
-227 -8 0
-226 225 0
-226 -6 0
-225 224 0
-225 4 0
-224 1 0
-224 -2 0
-250 249 0
-250 -26 0
-249 248 0
-249 24 0
-248 247 0
-248 -22 0
-247 246 0
-247 -20 0
-246 245 0
-246 18 0
-245 244 0
-245 -16 0
-244 243 0
-244 14 0
-243 242 0
-243 -12 0
-242 241 0
-242 10 0
-241 240 0
-241 -8 0
-240 239 0
-240 -6 0
-239 238 0
-239 4 0
-238 1 0
-238 -2 0
-264 263 0
-264 -26 0
-263 262 0
-263 -24 0
-262 261 0
-262 22 0
-261 260 0
-261 -20 0
-260 259 0
-260 -18 0
-259 258 0
-259 16 0
-258 257 0
-258 14 0
-257 256 0
-257 -12 0
-256 255 0
-256 10 0
-255 254 0
-255 -8 0
-254 253 0
-254 -6 0
-253 252 0
-253 4 0
-252 1 0
-252 -2 0
-278 277 0
-278 -26 0
-277 276 0
-277 24 0
-276 275 0
-276 22 0
-275 274 0
-275 -20 0
-274 273 0
-274 -18 0
-273 272 0
-273 -16 0
-272 271 0
-272 14 0
-271 270 0
-271 -12 0
-270 269 0
-270 10 0
-269 268 0
-269 -8 0
-268 267 0
-268 -6 0
-267 266 0
-267 4 0
-266 1 0
-266 -2 0
-292 291 0
-292 -26 0
-291 290 0
-291 24 0
-290 289 0
-290 -22 0
-289 288 0
-289 -20 0
-288 287 0
-288 18 0
-287 286 0
-287 -16 0
-286 285 0
-286 14 0
-285 284 0
-285 -12 0
-284 283 0
-284 10 0
-283 282 0
-283 -8 0
-282 281 0
-282 -6 0
-281 280 0
-281 4 0
-280 1 0
-280 -2 0
-306 305 0
-306 26 0
-305 304 0
-305 -24 0
-304 303 0
-304 -22 0
-303 302 0
-303 -20 0
-302 301 0
-302 18 0
-301 300 0
-301 -16 0
-300 299 0
-300 -14 0
-299 298 0
-299 12 0
-298 297 0
-298 10 0
-297 296 0
-297 -8 0
-296 295 0
-296 -6 0
-295 294 0
-295 4 0
-294 1 0
-294 -2 0
-320 319 0
-320 -26 0
-319 318 0
-319 -24 0
-318 317 0
-318 22 0
-317 316 0
-317 -20 0
-316 315 0
-316 18 0
-315 314 0
-315 -16 0
-314 313 0
-314 -14 0
-313 312 0
-313 12 0
-312 311 0
-312 10 0
-311 310 0
-311 -8 0
-310 309 0
-310 -6 0
-309 308 0
-309 4 0
-308 1 0
-308 -2 0
-334 333 0
-334 26 0
-333 332 0
-333 -24 0
-332 331 0
-332 -22 0
-331 330 0
-331 20 0
-330 329 0
-330 18 0
-329 328 0
-329 -16 0
-328 327 0
-328 -14 0
-327 326 0
-327 -12 0
-326 325 0
-326 10 0
-325 324 0
-325 -8 0
-324 323 0
-324 -6 0
-323 322 0
-323 4 0
-322 1 0
-322 -2 0
-348 347 0
-348 26 0
-347 346 0
-347 -24 0
-346 345 0
-346 -22 0
-345 344 0
-345 20 0
-344 343 0
-344 -18 0
-343 342 0
-343 -16 0
-342 341 0
-342 14 0
-341 340 0
-341 -12 0
-340 339 0
-340 10 0
-339 338 0
-339 -8 0
-338 337 0
-338 -6 0
-337 336 0
-337 4 0
-336 1 0
-336 -2 0
-362 361 0
-362 -26 0
-361 360 0
-361 -24 0
-360 359 0
-360 -22 0
-359 358 0
-359 20 0
-358 357 0
-358 18 0
-357 356 0
-357 -16 0
-356 355 0
-356 14 0
-355 354 0
-355 -12 0
-354 353 0
-354 10 0
-353 352 0
-353 -8 0
-352 351 0
-352 -6 0
-351 350 0
-351 4 0
-350 1 0
-350 -2 0
-376 375 0
-376 -26 0
-375 374 0
-375 24 0
-374 373 0
-374 -22 0
-373 372 0
-373 -20 0
-372 371 0
-372 18 0
-371 370 0
-371 -16 0
-370 369 0
-370 14 0
-369 368 0
-369 -12 0
-368 367 0
-368 10 0
-367 366 0
-367 -8 0
-366 365 0
-366 -6 0
-365 364 0
-365 4 0
-364 1 0
-364 -2 0
-390 389 0
-390 26 0
-389 388 0
-389 -24 0
-388 387 0
-388 -22 0
-387 386 0
-387 20 0
-386 385 0
-386 18 0
-385 384 0
-385 -16 0
-384 383 0
-384 -14 0
-383 382 0
-383 12 0
-382 381 0
-382 10 0
-381 380 0
-381 -8 0
-380 379 0
-380 -6 0
-379 378 0
-379 -4 0
-378 1 0
-378 -2 0
-404 403 0
-404 26 0
-403 402 0
-403 -24 0
-402 401 0
-402 -22 0
-401 400 0
-401 20 0
-400 399 0
-400 18 0
-399 398 0
-399 -16 0
-398 397 0
-398 -14 0
-397 396 0
-397 12 0
-396 395 0
-396 10 0
-395 394 0
-395 -8 0
-394 393 0
-394 -6 0
-393 392 0
-393 4 0
-392 -1 0
-392 -2 0
-418 417 0
-418 26 0
-417 416 0
-417 -24 0
-416 415 0
-416 -22 0
-415 414 0
-415 20 0
-414 413 0
-414 18 0
-413 412 0
-413 -16 0
-412 411 0
-412 -14 0
-411 410 0
-411 12 0
-410 409 0
-410 -10 0
-409 408 0
-409 -8 0
-408 407 0
-408 -6 0
-407 406 0
-407 4 0
-406 -1 0
-406 2 0
-432 431 0
-432 26 0
-431 430 0
-431 -24 0
-430 429 0
-430 -22 0
-429 428 0
-429 20 0
-428 427 0
-428 18 0
-427 426 0
-427 -16 0
-426 425 0
-426 -14 0
-425 424 0
-425 12 0
-424 423 0
-424 -10 0
-423 422 0
-423 8 0
-422 421 0
-422 -6 0
-421 420 0
-421 -4 0
-420 -1 0
-420 2 0
-446 445 0
-446 26 0
-445 444 0
-445 -24 0
-444 443 0
-444 -22 0
-443 442 0
-443 20 0
-442 441 0
-442 -18 0
-441 440 0
-441 -16 0
-440 439 0
-440 -14 0
-439 438 0
-439 12 0
-438 437 0
-438 10 0
-437 436 0
-437 -8 0
-436 435 0
-436 -6 0
-435 434 0
-435 4 0
-434 -1 0
-434 2 0
-460 459 0
-460 26 0
-459 458 0
-459 -24 0
-458 457 0
-458 -22 0
-457 456 0
-457 20 0
-456 455 0
-456 -18 0
-455 454 0
-455 16 0
-454 453 0
-454 -14 0
-453 452 0
-453 -12 0
-452 451 0
-452 10 0
-451 450 0
-451 -8 0
-450 449 0
-450 -6 0
-449 448 0
-449 4 0
-448 -1 0
-448 2 0
-474 473 0
-474 26 0
-473 472 0
-473 -24 0
-472 471 0
-472 -22 0
-471 470 0
-471 20 0
-470 469 0
-470 -18 0
-469 468 0
-469 16 0
-468 467 0
-468 -14 0
-467 466 0
-467 12 0
-466 465 0
-466 10 0
-465 464 0
-465 -8 0
-464 463 0
-464 -6 0
-463 462 0
-463 -4 0
-462 -1 0
-462 2 0
-488 487 0
-488 26 0
-487 486 0
-487 -24 0
-486 485 0
-486 -22 0
-485 484 0
-485 20 0
-484 483 0
-484 -18 0
-483 482 0
-483 16 0
-482 481 0
-482 -14 0
-481 480 0
-481 12 0
-480 479 0
-480 -10 0
-479 478 0
-479 -8 0
-478 477 0
-478 6 0
-477 476 0
-477 -4 0
-476 -1 0
-476 2 0
-502 501 0
-502 -26 0
-501 500 0
-501 -24 0
-500 499 0
-500 -22 0
-499 498 0
-499 20 0
-498 497 0
-498 18 0
-497 496 0
-497 -16 0
-496 495 0
-496 -14 0
-495 494 0
-495 12 0
-494 493 0
-494 10 0
-493 492 0
-493 -8 0
-492 491 0
-492 -6 0
-491 490 0
-491 4 0
-490 -1 0
-490 2 0
-516 515 0
-516 -26 0
-515 514 0
-515 24 0
-514 513 0
-514 -22 0
-513 512 0
-513 -20 0
-512 511 0
-512 18 0
-511 510 0
-511 -16 0
-510 509 0
-510 -14 0
-509 508 0
-509 12 0
-508 507 0
-508 10 0
-507 506 0
-507 -8 0
-506 505 0
-506 -6 0
-505 504 0
-505 4 0
-504 -1 0
-504 2 0
-530 529 0
-530 -26 0
-529 528 0
-529 24 0
-528 527 0
-528 -22 0
-527 526 0
-527 20 0
-526 525 0
-526 18 0
-525 524 0
-525 -16 0
-524 523 0
-524 -14 0
-523 522 0
-523 -12 0
-522 521 0
-522 10 0
-521 520 0
-521 -8 0
-520 519 0
-520 -6 0
-519 518 0
-519 4 0
-518 -1 0
-518 2 0
-544 543 0
-544 -26 0
-543 542 0
-543 24 0
-542 541 0
-542 -22 0
-541 540 0
-541 20 0
-540 539 0
-540 -18 0
-539 538 0
-539 -16 0
-538 537 0
-538 14 0
-537 536 0
-537 -12 0
-536 535 0
-536 10 0
-535 534 0
-535 -8 0
-534 533 0
-534 -6 0
-533 532 0
-533 4 0
-532 -1 0
-532 2 0
-558 557 0
-558 -26 0
-557 556 0
-557 24 0
-556 555 0
-556 -22 0
-555 554 0
-555 20 0
-554 553 0
-554 18 0
-553 552 0
-553 -16 0
-552 551 0
-552 -14 0
-551 550 0
-551 12 0
-550 549 0
-550 10 0
-549 548 0
-549 -8 0
-548 547 0
-548 -6 0
-547 546 0
-547 -4 0
-546 -1 0
-546 2 0
-572 571 0
-572 -26 0
-571 570 0
-571 24 0
-570 569 0
-570 -22 0
-569 568 0
-569 20 0
-568 567 0
-568 18 0
-567 566 0
-567 -16 0
-566 565 0
-566 -14 0
-565 564 0
-565 12 0
-564 563 0
-564 -10 0
-563 562 0
-563 -8 0
-562 561 0
-562 6 0
-561 560 0
-561 -4 0
-560 -1 0
-560 2 0
-586 585 0
-586 -26 0
-585 584 0
-585 24 0
-584 583 0
-584 -22 0
-583 582 0
-583 20 0
-582 581 0
-582 -18 0
-581 580 0
-581 -16 0
-580 579 0
-580 -14 0
-579 578 0
-579 12 0
-578 577 0
-578 10 0
-577 576 0
-577 -8 0
-576 575 0
-576 6 0
-575 574 0
-575 -4 0
-574 -1 0
-574 2 0
-600 599 0
-600 -26 0
-599 598 0
-599 24 0
-598 597 0
-598 -22 0
-597 596 0
-597 20 0
-596 595 0
-596 -18 0
-595 594 0
-595 16 0
-594 593 0
-594 -14 0
-593 592 0
-593 -12 0
-592 591 0
-592 10 0
-591 590 0
-591 -8 0
-590 589 0
-590 6 0
-589 588 0
-589 -4 0
-588 -1 0
-588 2 0
-614 613 0
-614 26 0
-613 612 0
-613 -24 0
-612 611 0
-612 -22 0
-611 610 0
-611 20 0
-610 609 0
-610 18 0
-609 608 0
-609 -16 0
-608 607 0
-608 -14 0
-607 606 0
-607 12 0
-606 605 0
-606 -10 0
-605 604 0
-605 -8 0
-604 603 0
-604 6 0
-603 602 0
-603 -4 0
-602 1 0
-602 -2 0
-628 627 0
-628 26 0
-627 626 0
-627 -24 0
-626 625 0
-626 -22 0
-625 624 0
-625 20 0
-624 623 0
-624 18 0
-623 622 0
-623 -16 0
-622 621 0
-622 -14 0
-621 620 0
-621 12 0
-620 619 0
-620 -10 0
-619 618 0
-619 8 0
-618 617 0
-618 6 0
-617 616 0
-617 -4 0
-616 -1 0
-616 -2 0
-642 641 0
-642 26 0
-641 640 0
-641 -24 0
-640 639 0
-640 -22 0
-639 638 0
-639 20 0
-638 637 0
-638 18 0
-637 636 0
-637 -16 0
-636 635 0
-636 -14 0
-635 634 0
-635 12 0
-634 633 0
-634 -10 0
-633 632 0
-633 8 0
-632 631 0
-632 -6 0
-631 630 0
-631 -4 0
-630 -1 0
-630 2 0
-656 655 0
-656 26 0
-655 654 0
-655 -24 0
-654 653 0
-654 -22 0
-653 652 0
-653 20 0
-652 651 0
-652 -18 0
-651 650 0
-651 -16 0
-650 649 0
-650 -14 0
-649 648 0
-649 12 0
-648 647 0
-648 10 0
-647 646 0
-647 -8 0
-646 645 0
-646 6 0
-645 644 0
-645 -4 0
-644 1 0
-644 -2 0
-670 669 0
-670 26 0
-669 668 0
-669 -24 0
-668 667 0
-668 -22 0
-667 666 0
-667 20 0
-666 665 0
-666 -18 0
-665 664 0
-665 16 0
-664 663 0
-664 -14 0
-663 662 0
-663 -12 0
-662 661 0
-662 10 0
-661 660 0
-661 -8 0
-660 659 0
-660 6 0
-659 658 0
-659 -4 0
-658 1 0
-658 -2 0
-684 683 0
-684 -26 0
-683 682 0
-683 -24 0
-682 681 0
-682 -22 0
-681 680 0
-681 20 0
-680 679 0
-680 18 0
-679 678 0
-679 -16 0
-678 677 0
-678 -14 0
-677 676 0
-677 12 0
-676 675 0
-676 10 0
-675 674 0
-675 -8 0
-674 673 0
-674 6 0
-673 672 0
-673 -4 0
-672 1 0
-672 -2 0
-698 697 0
-698 -26 0
-697 696 0
-697 24 0
-696 695 0
-696 -22 0
-695 694 0
-695 -20 0
-694 693 0
-694 18 0
-693 692 0
-693 -16 0
-692 691 0
-692 -14 0
-691 690 0
-691 12 0
-690 689 0
-690 10 0
-689 688 0
-689 -8 0
-688 687 0
-688 6 0
-687 686 0
-687 -4 0
-686 1 0
-686 -2 0
-712 711 0
-712 -26 0
-711 710 0
-711 24 0
-710 709 0
-710 -22 0
-709 708 0
-709 20 0
-708 707 0
-708 18 0
-707 706 0
-707 -16 0
-706 705 0
-706 -14 0
-705 704 0
-705 -12 0
-704 703 0
-704 10 0
-703 702 0
-703 -8 0
-702 701 0
-702 6 0
-701 700 0
-701 -4 0
-700 1 0
-700 -2 0
-726 725 0
-726 -26 0
-725 724 0
-725 24 0
-724 723 0
-724 -22 0
-723 722 0
-723 20 0
-722 721 0
-722 -18 0
-721 720 0
-721 -16 0
-720 719 0
-720 14 0
-719 718 0
-719 -12 0
-718 717 0
-718 10 0
-717 716 0
-717 -8 0
-716 715 0
-716 6 0
-715 714 0
-715 -4 0
-714 1 0
-714 -2 0
-740 739 0
-740 26 0
-739 738 0
-739 -24 0
-738 737 0
-738 22 0
-737 736 0
-737 -20 0
-736 735 0
-736 -18 0
-735 734 0
-735 -16 0
-734 733 0
-734 14 0
-733 732 0
-733 -12 0
-732 731 0
-732 -10 0
-731 730 0
-731 8 0
-730 729 0
-730 -6 0
-729 728 0
-729 4 0
-728 1 0
-728 -2 0
-754 753 0
-754 26 0
-753 752 0
-753 -24 0
-752 751 0
-752 -22 0
-751 750 0
-751 -20 0
-750 749 0
-750 18 0
-749 748 0
-749 -16 0
-748 747 0
-748 14 0
-747 746 0
-747 -12 0
-746 745 0
-746 -10 0
-745 744 0
-745 8 0
-744 743 0
-744 -6 0
-743 742 0
-743 4 0
-742 1 0
-742 -2 0
-768 767 0
-768 -26 0
-767 766 0
-767 -24 0
-766 765 0
-766 22 0
-765 764 0
-765 -20 0
-764 763 0
-764 18 0
-763 762 0
-763 -16 0
-762 761 0
-762 14 0
-761 760 0
-761 -12 0
-760 759 0
-760 -10 0
-759 758 0
-759 8 0
-758 757 0
-758 -6 0
-757 756 0
-757 4 0
-756 1 0
-756 -2 0
-782 781 0
-782 26 0
-781 780 0
-781 -24 0
-780 779 0
-780 22 0
-779 778 0
-779 -20 0
-778 777 0
-778 -18 0
-777 776 0
-777 16 0
-776 775 0
-776 14 0
-775 774 0
-775 -12 0
-774 773 0
-774 -10 0
-773 772 0
-773 -8 0
-772 771 0
-772 -6 0
-771 770 0
-771 4 0
-770 1 0
-770 -2 0
-796 795 0
-796 26 0
-795 794 0
-795 -24 0
-794 793 0
-794 22 0
-793 792 0
-793 -20 0
-792 791 0
-792 -18 0
-791 790 0
-791 16 0
-790 789 0
-790 14 0
-789 788 0
-789 -12 0
-788 787 0
-788 -10 0
-787 786 0
-787 8 0
-786 785 0
-786 -6 0
-785 784 0
-785 -4 0
-784 1 0
-784 -2 0
-810 809 0
-810 26 0
-809 808 0
-809 -24 0
-808 807 0
-808 22 0
-807 806 0
-807 -20 0
-806 805 0
-806 -18 0
-805 804 0
-805 16 0
-804 803 0
-804 14 0
-803 802 0
-803 -12 0
-802 801 0
-802 -10 0
-801 800 0
-801 8 0
-800 799 0
-800 -6 0
-799 798 0
-799 4 0
-798 -1 0
-798 -2 0
-824 823 0
-824 26 0
-823 822 0
-823 -24 0
-822 821 0
-822 22 0
-821 820 0
-821 -20 0
-820 819 0
-820 -18 0
-819 818 0
-819 16 0
-818 817 0
-818 -14 0
-817 816 0
-817 -12 0
-816 815 0
-816 -10 0
-815 814 0
-815 8 0
-814 813 0
-814 6 0
-813 812 0
-813 -4 0
-812 1 0
-812 -2 0
-838 837 0
-838 26 0
-837 836 0
-837 -24 0
-836 835 0
-836 22 0
-835 834 0
-835 -20 0
-834 833 0
-834 -18 0
-833 832 0
-833 16 0
-832 831 0
-832 -14 0
-831 830 0
-831 12 0
-830 829 0
-830 -10 0
-829 828 0
-829 -8 0
-828 827 0
-828 6 0
-827 826 0
-827 -4 0
-826 1 0
-826 -2 0
-852 851 0
-852 26 0
-851 850 0
-851 -24 0
-850 849 0
-850 22 0
-849 848 0
-849 -20 0
-848 847 0
-848 -18 0
-847 846 0
-847 16 0
-846 845 0
-846 -14 0
-845 844 0
-845 12 0
-844 843 0
-844 -10 0
-843 842 0
-843 8 0
-842 841 0
-842 6 0
-841 840 0
-841 -4 0
-840 -1 0
-840 -2 0
-866 865 0
-866 26 0
-865 864 0
-865 -24 0
-864 863 0
-864 22 0
-863 862 0
-863 -20 0
-862 861 0
-862 -18 0
-861 860 0
-861 16 0
-860 859 0
-860 -14 0
-859 858 0
-859 12 0
-858 857 0
-858 -10 0
-857 856 0
-857 8 0
-856 855 0
-856 -6 0
-855 854 0
-855 -4 0
-854 -1 0
-854 2 0
-880 879 0
-880 26 0
-879 878 0
-879 -24 0
-878 877 0
-878 -22 0
-877 876 0
-877 -20 0
-876 875 0
-876 -18 0
-875 874 0
-875 16 0
-874 873 0
-874 14 0
-873 872 0
-873 -12 0
-872 871 0
-872 -10 0
-871 870 0
-871 8 0
-870 869 0
-870 6 0
-869 868 0
-869 -4 0
-868 1 0
-868 -2 0
-894 893 0
-894 26 0
-893 892 0
-893 -24 0
-892 891 0
-892 -22 0
-891 890 0
-891 20 0
-890 889 0
-890 -18 0
-889 888 0
-889 -16 0
-888 887 0
-888 14 0
-887 886 0
-887 -12 0
-886 885 0
-886 -10 0
-885 884 0
-885 8 0
-884 883 0
-884 6 0
-883 882 0
-883 -4 0
-882 1 0
-882 -2 0
-908 907 0
-908 26 0
-907 906 0
-907 -24 0
-906 905 0
-906 -22 0
-905 904 0
-905 20 0
-904 903 0
-904 -18 0
-903 902 0
-903 16 0
-902 901 0
-902 14 0
-901 900 0
-901 -12 0
-900 899 0
-900 -10 0
-899 898 0
-899 -8 0
-898 897 0
-898 6 0
-897 896 0
-897 -4 0
-896 1 0
-896 -2 0
-922 921 0
-922 26 0
-921 920 0
-921 -24 0
-920 919 0
-920 -22 0
-919 918 0
-919 20 0
-918 917 0
-918 -18 0
-917 916 0
-917 16 0
-916 915 0
-916 -14 0
-915 914 0
-915 -12 0
-914 913 0
-914 10 0
-913 912 0
-913 -8 0
-912 911 0
-912 6 0
-911 910 0
-911 -4 0
-910 1 0
-910 -2 0
-936 935 0
-936 26 0
-935 934 0
-935 -24 0
-934 933 0
-934 -22 0
-933 932 0
-933 20 0
-932 931 0
-932 -18 0
-931 930 0
-931 16 0
-930 929 0
-930 14 0
-929 928 0
-929 -12 0
-928 927 0
-928 -10 0
-927 926 0
-927 8 0
-926 925 0
-926 6 0
-925 924 0
-925 -4 0
-924 -1 0
-924 -2 0
-950 949 0
-950 26 0
-949 948 0
-949 -24 0
-948 947 0
-948 -22 0
-947 946 0
-947 20 0
-946 945 0
-946 -18 0
-945 944 0
-945 16 0
-944 943 0
-944 14 0
-943 942 0
-943 -12 0
-942 941 0
-942 -10 0
-941 940 0
-941 8 0
-940 939 0
-940 -6 0
-939 938 0
-939 -4 0
-938 -1 0
-938 2 0
-964 963 0
-964 26 0
-963 962 0
-963 -24 0
-962 961 0
-962 -22 0
-961 960 0
-961 20 0
-960 959 0
-960 -18 0
-959 958 0
-959 16 0
-958 957 0
-958 -14 0
-957 956 0
-957 -12 0
-956 955 0
-956 -10 0
-955 954 0
-955 8 0
-954 953 0
-954 6 0
-953 952 0
-953 -4 0
-952 -1 0
-952 2 0
-978 977 0
-978 26 0
-977 976 0
-977 -24 0
-976 975 0
-976 -22 0
-975 974 0
-975 20 0
-974 973 0
-974 -18 0
-973 972 0
-973 16 0
-972 971 0
-972 -14 0
-971 970 0
-971 12 0
-970 969 0
-970 -10 0
-969 968 0
-969 -8 0
-968 967 0
-968 6 0
-967 966 0
-967 -4 0
-966 -1 0
-966 2 0
-992 991 0
-992 -26 0
-991 990 0
-991 -24 0
-990 989 0
-990 -22 0
-989 988 0
-989 20 0
-988 987 0
-988 18 0
-987 986 0
-987 -16 0
-986 985 0
-986 14 0
-985 984 0
-985 -12 0
-984 983 0
-984 -10 0
-983 982 0
-983 8 0
-982 981 0
-982 6 0
-981 980 0
-981 -4 0
-980 1 0
-980 -2 0
-1006 1005 0
-1006 -26 0
-1005 1004 0
-1005 24 0
-1004 1003 0
-1004 -22 0
-1003 1002 0
-1003 -20 0
-1002 1001 0
-1002 18 0
-1001 1000 0
-1001 -16 0
-1000 999 0
-1000 14 0
-999 998 0
-999 -12 0
-998 997 0
-998 -10 0
-997 996 0
-997 8 0
-996 995 0
-996 6 0
-995 994 0
-995 -4 0
-994 1 0
-994 -2 0
-1020 1019 0
-1020 -26 0
-1019 1018 0
-1019 -24 0
-1018 1017 0
-1018 22 0
-1017 1016 0
-1017 -20 0
-1016 1015 0
-1016 -18 0
-1015 1014 0
-1015 16 0
-1014 1013 0
-1014 14 0
-1013 1012 0
-1013 -12 0
-1012 1011 0
-1012 -10 0
-1011 1010 0
-1011 8 0
-1010 1009 0
-1010 6 0
-1009 1008 0
-1009 -4 0
-1008 1 0
-1008 -2 0
-1034 1033 0
-1034 -26 0
-1033 1032 0
-1033 24 0
-1032 1031 0
-1032 22 0
-1031 1030 0
-1031 -20 0
-1030 1029 0
-1030 -18 0
-1029 1028 0
-1029 -16 0
-1028 1027 0
-1028 14 0
-1027 1026 0
-1027 -12 0
-1026 1025 0
-1026 -10 0
-1025 1024 0
-1025 8 0
-1024 1023 0
-1024 6 0
-1023 1022 0
-1023 -4 0
-1022 1 0
-1022 -2 0
-1048 1047 0
-1048 -26 0
-1047 1046 0
-1047 24 0
-1046 1045 0
-1046 -22 0
-1045 1044 0
-1045 -20 0
-1044 1043 0
-1044 18 0
-1043 1042 0
-1043 -16 0
-1042 1041 0
-1042 14 0
-1041 1040 0
-1041 -12 0
-1040 1039 0
-1040 -10 0
-1039 1038 0
-1039 8 0
-1038 1037 0
-1038 6 0
-1037 1036 0
-1037 -4 0
-1036 1 0
-1036 -2 0
-1062 1061 0
-1062 -26 0
-1061 1060 0
-1061 24 0
-1060 1059 0
-1060 22 0
-1059 1058 0
-1059 -20 0
-1058 1057 0
-1058 -18 0
-1057 1056 0
-1057 16 0
-1056 1055 0
-1056 14 0
-1055 1054 0
-1055 -12 0
-1054 1053 0
-1054 -10 0
-1053 1052 0
-1053 -8 0
-1052 1051 0
-1052 6 0
-1051 1050 0
-1051 -4 0
-1050 1 0
-1050 -2 0
-1076 1075 0
-1076 -26 0
-1075 1074 0
-1075 24 0
-1074 1073 0
-1074 22 0
-1073 1072 0
-1073 -20 0
-1072 1071 0
-1072 -18 0
-1071 1070 0
-1071 16 0
-1070 1069 0
-1070 -14 0
-1069 1068 0
-1069 -12 0
-1068 1067 0
-1068 10 0
-1067 1066 0
-1067 -8 0
-1066 1065 0
-1066 6 0
-1065 1064 0
-1065 -4 0
-1064 1 0
-1064 -2 0
-1090 1089 0
-1090 -26 0
-1089 1088 0
-1089 24 0
-1088 1087 0
-1088 -22 0
-1087 1086 0
-1087 -20 0
-1086 1085 0
-1086 -18 0
-1085 1084 0
-1085 16 0
-1084 1083 0
-1084 14 0
-1083 1082 0
-1083 -12 0
-1082 1081 0
-1082 10 0
-1081 1080 0
-1081 -8 0
-1080 1079 0
-1080 6 0
-1079 1078 0
-1079 -4 0
-1078 1 0
-1078 -2 0
-1104 1103 0
-1104 -26 0
-1103 1102 0
-1103 24 0
-1102 1101 0
-1102 -22 0
-1101 1100 0
-1101 20 0
-1100 1099 0
-1100 -18 0
-1099 1098 0
-1099 -16 0
-1098 1097 0
-1098 14 0
-1097 1096 0
-1097 -12 0
-1096 1095 0
-1096 10 0
-1095 1094 0
-1095 -8 0
-1094 1093 0
-1094 6 0
-1093 1092 0
-1093 -4 0
-1092 1 0
-1092 -2 0
-1118 1117 0
-1118 -26 0
-1117 1116 0
-1117 24 0
-1116 1115 0
-1116 22 0
-1115 1114 0
-1115 -20 0
-1114 1113 0
-1114 -18 0
-1113 1112 0
-1113 16 0
-1112 1111 0
-1112 14 0
-1111 1110 0
-1111 -12 0
-1110 1109 0
-1110 -10 0
-1109 1108 0
-1109 8 0
-1108 1107 0
-1108 6 0
-1107 1106 0
-1107 -4 0
-1106 -1 0
-1106 -2 0
-1132 1131 0
-1132 -26 0
-1131 1130 0
-1131 24 0
-1130 1129 0
-1130 22 0
-1129 1128 0
-1129 -20 0
-1128 1127 0
-1128 -18 0
-1127 1126 0
-1127 16 0
-1126 1125 0
-1126 14 0
-1125 1124 0
-1125 -12 0
-1124 1123 0
-1124 -10 0
-1123 1122 0
-1123 8 0
-1122 1121 0
-1122 -6 0
-1121 1120 0
-1121 -4 0
-1120 -1 0
-1120 2 0
-1146 1145 0
-1146 -26 0
-1145 1144 0
-1145 24 0
-1144 1143 0
-1144 22 0
-1143 1142 0
-1143 -20 0
-1142 1141 0
-1142 -18 0
-1141 1140 0
-1141 16 0
-1140 1139 0
-1140 -14 0
-1139 1138 0
-1139 -12 0
-1138 1137 0
-1138 -10 0
-1137 1136 0
-1137 8 0
-1136 1135 0
-1136 6 0
-1135 1134 0
-1135 -4 0
-1134 -1 0
-1134 2 0
-1160 1159 0
-1160 -26 0
-1159 1158 0
-1159 24 0
-1158 1157 0
-1158 22 0
-1157 1156 0
-1157 -20 0
-1156 1155 0
-1156 -18 0
-1155 1154 0
-1155 16 0
-1154 1153 0
-1154 -14 0
-1153 1152 0
-1153 12 0
-1152 1151 0
-1152 -10 0
-1151 1150 0
-1151 -8 0
-1150 1149 0
-1150 6 0
-1149 1148 0
-1149 -4 0
-1148 -1 0
-1148 2 0
-1174 1173 0
-1174 -26 0
-1173 1172 0
-1173 24 0
-1172 1171 0
-1172 -22 0
-1171 1170 0
-1171 -20 0
-1170 1169 0
-1170 -18 0
-1169 1168 0
-1169 16 0
-1168 1167 0
-1168 14 0
-1167 1166 0
-1167 -12 0
-1166 1165 0
-1166 -10 0
-1165 1164 0
-1165 8 0
-1164 1163 0
-1164 6 0
-1163 1162 0
-1163 -4 0
-1162 -1 0
-1162 2 0
-1188 1187 0
-1188 -26 0
-1187 1186 0
-1187 24 0
-1186 1185 0
-1186 -22 0
-1185 1184 0
-1185 20 0
-1184 1183 0
-1184 -18 0
-1183 1182 0
-1183 -16 0
-1182 1181 0
-1182 14 0
-1181 1180 0
-1181 -12 0
-1180 1179 0
-1180 -10 0
-1179 1178 0
-1179 8 0
-1178 1177 0
-1178 6 0
-1177 1176 0
-1177 -4 0
-1176 -1 0
-1176 2 0
-1202 1201 0
-1202 -26 0
-1201 1200 0
-1201 24 0
-1200 1199 0
-1200 -22 0
-1199 1198 0
-1199 20 0
-1198 1197 0
-1198 -18 0
-1197 1196 0
-1197 16 0
-1196 1195 0
-1196 14 0
-1195 1194 0
-1195 -12 0
-1194 1193 0
-1194 -10 0
-1193 1192 0
-1193 -8 0
-1192 1191 0
-1192 6 0
-1191 1190 0
-1191 -4 0
-1190 -1 0
-1190 2 0
-1216 1215 0
-1216 -26 0
-1215 1214 0
-1215 24 0
-1214 1213 0
-1214 -22 0
-1213 1212 0
-1213 20 0
-1212 1211 0
-1212 -18 0
-1211 1210 0
-1211 16 0
-1210 1209 0
-1210 -14 0
-1209 1208 0
-1209 -12 0
-1208 1207 0
-1208 10 0
-1207 1206 0
-1207 -8 0
-1206 1205 0
-1206 6 0
-1205 1204 0
-1205 -4 0
-1204 -1 0
-1204 2 0
-1230 1229 0
-1230 26 0
-1229 1228 0
-1229 -24 0
-1228 1227 0
-1228 22 0
-1227 1226 0
-1227 -20 0
-1226 1225 0
-1226 -18 0
-1225 1224 0
-1225 16 0
-1224 1223 0
-1224 -14 0
-1223 1222 0
-1223 -12 0
-1222 1221 0
-1222 10 0
-1221 1220 0
-1221 -8 0
-1220 1219 0
-1220 -6 0
-1219 1218 0
-1219 4 0
-1218 1 0
-1218 -2 0
-1244 1243 0
-1244 26 0
-1243 1242 0
-1243 -24 0
-1242 1241 0
-1242 22 0
-1241 1240 0
-1241 -20 0
-1240 1239 0
-1240 -18 0
-1239 1238 0
-1239 16 0
-1238 1237 0
-1238 -14 0
-1237 1236 0
-1237 12 0
-1236 1235 0
-1236 10 0
-1235 1234 0
-1235 -8 0
-1234 1233 0
-1234 -6 0
-1233 1232 0
-1233 -4 0
-1232 1 0
-1232 -2 0
-1258 1257 0
-1258 26 0
-1257 1256 0
-1257 -24 0
-1256 1255 0
-1256 22 0
-1255 1254 0
-1255 -20 0
-1254 1253 0
-1254 -18 0
-1253 1252 0
-1253 16 0
-1252 1251 0
-1252 -14 0
-1251 1250 0
-1251 12 0
-1250 1249 0
-1250 10 0
-1249 1248 0
-1249 -8 0
-1248 1247 0
-1248 -6 0
-1247 1246 0
-1247 4 0
-1246 -1 0
-1246 -2 0
-1272 1271 0
-1272 26 0
-1271 1270 0
-1271 -24 0
-1270 1269 0
-1270 22 0
-1269 1268 0
-1269 -20 0
-1268 1267 0
-1268 -18 0
-1267 1266 0
-1267 16 0
-1266 1265 0
-1266 -14 0
-1265 1264 0
-1265 12 0
-1264 1263 0
-1264 -10 0
-1263 1262 0
-1263 -8 0
-1262 1261 0
-1262 -6 0
-1261 1260 0
-1261 4 0
-1260 -1 0
-1260 2 0
-1286 1285 0
-1286 26 0
-1285 1284 0
-1285 -24 0
-1284 1283 0
-1284 22 0
-1283 1282 0
-1283 -20 0
-1282 1281 0
-1282 -18 0
-1281 1280 0
-1281 16 0
-1280 1279 0
-1280 -14 0
-1279 1278 0
-1279 12 0
-1278 1277 0
-1278 -10 0
-1277 1276 0
-1277 8 0
-1276 1275 0
-1276 -6 0
-1275 1274 0
-1275 -4 0
-1274 -1 0
-1274 2 0
-1300 1299 0
-1300 26 0
-1299 1298 0
-1299 -24 0
-1298 1297 0
-1298 22 0
-1297 1296 0
-1297 -20 0
-1296 1295 0
-1296 -18 0
-1295 1294 0
-1295 16 0
-1294 1293 0
-1294 -14 0
-1293 1292 0
-1293 12 0
-1292 1291 0
-1292 -10 0
-1291 1290 0
-1291 -8 0
-1290 1289 0
-1290 6 0
-1289 1288 0
-1289 -4 0
-1288 1 0
-1288 -2 0
-1314 1313 0
-1314 26 0
-1313 1312 0
-1313 -24 0
-1312 1311 0
-1312 22 0
-1311 1310 0
-1311 -20 0
-1310 1309 0
-1310 -18 0
-1309 1308 0
-1309 16 0
-1308 1307 0
-1308 -14 0
-1307 1306 0
-1307 12 0
-1306 1305 0
-1306 -10 0
-1305 1304 0
-1305 8 0
-1304 1303 0
-1304 6 0
-1303 1302 0
-1303 -4 0
-1302 -1 0
-1302 -2 0
-1328 1327 0
-1328 26 0
-1327 1326 0
-1327 -24 0
-1326 1325 0
-1326 22 0
-1325 1324 0
-1325 -20 0
-1324 1323 0
-1324 -18 0
-1323 1322 0
-1323 16 0
-1322 1321 0
-1322 -14 0
-1321 1320 0
-1321 12 0
-1320 1319 0
-1320 -10 0
-1319 1318 0
-1319 8 0
-1318 1317 0
-1318 -6 0
-1317 1316 0
-1317 -4 0
-1316 -1 0
-1316 2 0
-1342 1341 0
-1342 26 0
-1341 1340 0
-1341 -24 0
-1340 1339 0
-1340 -22 0
-1339 1338 0
-1339 -20 0
-1338 1337 0
-1338 -18 0
-1337 1336 0
-1337 16 0
-1336 1335 0
-1336 14 0
-1335 1334 0
-1335 -12 0
-1334 1333 0
-1334 10 0
-1333 1332 0
-1333 -8 0
-1332 1331 0
-1332 -6 0
-1331 1330 0
-1331 4 0
-1330 1 0
-1330 -2 0
-1356 1355 0
-1356 26 0
-1355 1354 0
-1355 -24 0
-1354 1353 0
-1354 -22 0
-1353 1352 0
-1353 20 0
-1352 1351 0
-1352 -18 0
-1351 1350 0
-1351 -16 0
-1350 1349 0
-1350 14 0
-1349 1348 0
-1349 -12 0
-1348 1347 0
-1348 10 0
-1347 1346 0
-1347 -8 0
-1346 1345 0
-1346 -6 0
-1345 1344 0
-1345 4 0
-1344 1 0
-1344 -2 0
-1370 1369 0
-1370 -26 0
-1369 1368 0
-1369 -24 0
-1368 1367 0
-1368 -22 0
-1367 1366 0
-1367 20 0
-1366 1365 0
-1366 18 0
-1365 1364 0
-1365 -16 0
-1364 1363 0
-1364 14 0
-1363 1362 0
-1363 -12 0
-1362 1361 0
-1362 10 0
-1361 1360 0
-1361 -8 0
-1360 1359 0
-1360 -6 0
-1359 1358 0
-1359 4 0
-1358 1 0
-1358 -2 0
-1384 1383 0
-1384 -26 0
-1383 1382 0
-1383 24 0
-1382 1381 0
-1382 -22 0
-1381 1380 0
-1381 -20 0
-1380 1379 0
-1380 18 0
-1379 1378 0
-1379 -16 0
-1378 1377 0
-1378 14 0
-1377 1376 0
-1377 -12 0
-1376 1375 0
-1376 10 0
-1375 1374 0
-1375 -8 0
-1374 1373 0
-1374 -6 0
-1373 1372 0
-1373 4 0
-1372 1 0
-1372 -2 0
-1398 1397 0
-1398 -26 0
-1397 1396 0
-1397 -24 0
-1396 1395 0
-1396 22 0
-1395 1394 0
-1395 -20 0
-1394 1393 0
-1394 -18 0
-1393 1392 0
-1393 16 0
-1392 1391 0
-1392 14 0
-1391 1390 0
-1391 -12 0
-1390 1389 0
-1390 10 0
-1389 1388 0
-1389 -8 0
-1388 1387 0
-1388 -6 0
-1387 1386 0
-1387 4 0
-1386 1 0
-1386 -2 0
-1412 1411 0
-1412 -26 0
-1411 1410 0
-1411 24 0
-1410 1409 0
-1410 22 0
-1409 1408 0
-1409 -20 0
-1408 1407 0
-1408 -18 0
-1407 1406 0
-1407 -16 0
-1406 1405 0
-1406 14 0
-1405 1404 0
-1405 -12 0
-1404 1403 0
-1404 10 0
-1403 1402 0
-1403 -8 0
-1402 1401 0
-1402 -6 0
-1401 1400 0
-1401 4 0
-1400 1 0
-1400 -2 0
-1426 1425 0
-1426 -26 0
-1425 1424 0
-1425 24 0
-1424 1423 0
-1424 -22 0
-1423 1422 0
-1423 -20 0
-1422 1421 0
-1422 18 0
-1421 1420 0
-1421 -16 0
-1420 1419 0
-1420 14 0
-1419 1418 0
-1419 -12 0
-1418 1417 0
-1418 10 0
-1417 1416 0
-1417 -8 0
-1416 1415 0
-1416 -6 0
-1415 1414 0
-1415 4 0
-1414 1 0
-1414 -2 0
-1440 1439 0
-1440 -26 0
-1439 1438 0
-1439 24 0
-1438 1437 0
-1438 -22 0
-1437 1436 0
-1437 20 0
-1436 1435 0
-1436 -18 0
-1435 1434 0
-1435 16 0
-1434 1433 0
-1434 -14 0
-1433 1432 0
-1433 -12 0
-1432 1431 0
-1432 10 0
-1431 1430 0
-1431 -8 0
-1430 1429 0
-1430 6 0
-1429 1428 0
-1429 -4 0
-1428 -1 0
-1428 2 0
